<?xml version="1.0" encoding="UTF-8"?><osil xmlns="os.optimizationservices.org" xmlns:xsi="http://www.w3.org/2001/XMLSchema-instance" xsi:schemaLocation="os.optimizationservices.org http://www.optimizationservices.org/schemas/2.0/OSiL.xsd"><instanceHeader><name>ravempb</name></instanceHeader><instanceData><variables numberOfVariables="112"><var name="x1" lb="5.7037824746562" ub="8.1605182474775"/><var name="x2" lb="5.7037824746562" ub="8.1605182474775"/><var name="x3" lb="5.7037824746562" ub="8.1605182474775"/><var name="x4" lb="5.7037824746562" ub="8.1605182474775"/><var name="x5" lb="5.7037824746562" ub="8.1605182474775"/><var name="x6" lb="5.7037824746562" ub="8.1605182474775"/><var name="x7" lb="4.45966260231685" ub="6.09365548800453"/><var name="x8" lb="4.45966260231685" ub="6.09365548800453"/><var name="x9" lb="4.45966260231685" ub="6.09365548800453"/><var name="x10" lb="4.45966260231685" ub="6.09365548800453"/><var name="x11" lb="4.45966260231685" ub="6.09365548800453"/><var name="x12" lb="4.45966260231685" ub="6.09365548800453"/><var name="x13" lb="3.74950407593037" ub="6.93674281585539"/><var name="x14" lb="3.74950407593037" ub="6.93674281585539"/><var name="x15" lb="3.74950407593037" ub="6.93674281585539"/><var name="x16" lb="3.74950407593037" ub="6.93674281585539"/><var name="x17" lb="3.74950407593037" ub="6.93674281585539"/><var name="x18" lb="3.74950407593037" ub="6.93674281585539"/><var name="x19" lb="4.49144142065975" ub="6.87958440201544"/><var name="x20" lb="4.49144142065975" ub="6.87958440201544"/><var name="x21" lb="4.49144142065975" ub="6.87958440201544"/><var name="x22" lb="4.49144142065975" ub="6.87958440201544"/><var name="x23" lb="4.49144142065975" ub="6.87958440201544"/><var name="x24" lb="4.49144142065975" ub="6.87958440201544"/><var name="x25" lb="3.14988295338125" ub="6.61295573876149"/><var name="x26" lb="3.14988295338125" ub="6.61295573876149"/><var name="x27" lb="3.14988295338125" ub="6.61295573876149"/><var name="x28" lb="3.14988295338125" ub="6.61295573876149"/><var name="x29" lb="3.14988295338125" ub="6.61295573876149"/><var name="x30" lb="3.14988295338125" ub="6.61295573876149"/><var name="x31" lb="3.04452243772342" ub="6.65644085070123"/><var name="x32" lb="3.04452243772342" ub="6.65644085070123"/><var name="x33" lb="3.04452243772342" ub="6.65644085070123"/><var name="x34" lb="3.04452243772342" ub="6.65644085070123"/><var name="x35" lb="3.04452243772342" ub="6.65644085070123"/><var name="x36" lb="3.04452243772342" ub="6.65644085070123"/><var name="x37" ub="1.38629436111989"/><var name="x38" ub="1.38629436111989"/><var name="x39" ub="1.38629436111989"/><var name="x40" ub="1.38629436111989"/><var name="x41" ub="1.38629436111989"/><var name="x42" ub="1.38629436111989"/><var name="x43" ub="1.38629436111989"/><var name="x44" ub="1.38629436111989"/><var name="x45" ub="1.38629436111989"/><var name="x46" ub="1.38629436111989"/><var name="x47" ub="1.38629436111989"/><var name="x48" ub="1.38629436111989"/><var name="x50" lb="4.60517018598809" ub="9.61580548008435"/><var name="x51" lb="4.60517018598809" ub="9.61580548008435"/><var name="x52" lb="4.60517018598809" ub="9.61580548008435"/><var name="x53" lb="4.60517018598809" ub="9.61580548008435"/><var name="x54" lb="4.60517018598809" ub="9.61580548008435"/><var name="x55" lb="-INF" ub="100"/><var name="x56" lb="-INF" ub="100"/><var name="x57" lb="-INF" ub="100"/><var name="x58" lb="-INF" ub="100"/><var name="x59" lb="-INF" ub="100"/><var name="b60" type="B" ub="1"/><var name="b61" type="B" ub="1"/><var name="b62" type="B" ub="1"/><var name="b63" type="B" ub="1"/><var name="b64" type="B" ub="1"/><var name="b65" type="B" ub="1"/><var name="b66" type="B" ub="1"/><var name="b67" type="B" ub="1"/><var name="b68" type="B" ub="1"/><var name="b69" type="B" ub="1"/><var name="b70" type="B" ub="1"/><var name="b71" type="B" ub="1"/><var name="b72" type="B" ub="1"/><var name="b73" type="B" ub="1"/><var name="b74" type="B" ub="1"/><var name="b75" type="B" ub="1"/><var name="b76" type="B" ub="1"/><var name="b77" type="B" ub="1"/><var name="b78" type="B" ub="1"/><var name="b79" type="B" ub="1"/><var name="b80" type="B" ub="1"/><var name="b81" type="B" ub="1"/><var name="b82" type="B" ub="1"/><var name="b83" type="B" ub="1"/><var name="b84" type="B" ub="1"/><var name="b85" type="B" ub="1"/><var name="b86" type="B" ub="1"/><var name="b87" type="B" ub="1"/><var name="b88" type="B" ub="1"/><var name="b89" type="B" ub="1"/><var name="b90" type="B" ub="1"/><var name="b91" type="B" ub="1"/><var name="b92" type="B" ub="1"/><var name="b93" type="B" ub="1"/><var name="b94" type="B" ub="1"/><var name="b95" type="B" ub="1"/><var name="b96" type="B" ub="1"/><var name="b97" type="B" ub="1"/><var name="b98" type="B" ub="1"/><var name="b99" type="B" ub="1"/><var name="b100" type="B" ub="1"/><var name="b101" type="B" ub="1"/><var name="b102" type="B" ub="1"/><var name="b103" type="B" ub="1"/><var name="b104" type="B" ub="1"/><var name="b105" type="B" ub="1"/><var name="b106" type="B" ub="1"/><var name="b107" type="B" ub="1"/><var name="b108" type="B" ub="1"/><var name="b109" type="B" ub="1"/><var name="b110" type="B" ub="1"/><var name="b111" type="B" ub="1"/><var name="b112" type="B" ub="1"/><var name="b113" type="B" ub="0"/></variables><objectives><obj maxOrMin="min" name="defObj_objvar" numberOfObjCoef="0"/></objectives><constraints numberOfConstraints="186"><con name="e1" lb="2.06686275947298"/><con name="e2" lb=".693147180559945"/><con name="e3" lb="1.64865862558738"/><con name="e4" lb="1.58923520511658"/><con name="e5" lb="1.80828877117927"/><con name="e6" lb="1.43508452528932"/><con name="e7" lb="-.356674943938732"/><con name="e8" lb="-.22314355131421"/><con name="e9" lb="-.105360515657826"/><con name="e10" lb="1.22377543162212"/><con name="e11" lb=".741937344729377"/><con name="e12" lb=".916290731874155"/><con name="e13" lb="-.356674943938732"/><con name="e14" lb=".955511445027436"/><con name="e15" lb=".470003629245736"/><con name="e16" lb="1.28093384546206"/><con name="e17" lb="1.16315080980568"/><con name="e18" lb="1.06471073699243"/><con name="e19" lb="1.54756250871601"/><con name="e20" lb=".832909122935104"/><con name="e21" lb=".470003629245736"/><con name="e22" lb=".993251773010283"/><con name="e23" lb=".182321556793955"/><con name="e24" lb=".916290731874155"/><con name="e25" lb=".182321556793955"/><con name="e26" lb="1.28093384546206"/><con name="e27" lb=".8754687373539"/><con name="e28" lb="1.50407739677627"/><con name="e29" lb=".470003629245736"/><con name="e30" lb=".741937344729377"/><con name="e31" lb="1.85629799036563"/><con name="e32" lb="1.54756250871601"/><con name="e33" lb="2.11625551480255"/><con name="e34" lb="1.3609765531356"/><con name="e35" lb=".741937344729377"/><con name="e36" lb=".182321556793955"/><con name="e37" lb="1.91692261218206"/><con name="e38" lb="1.85629799036563"/><con name="e39" lb="1.87180217690159"/><con name="e40" lb="1.48160454092422"/><con name="e41" lb=".832909122935104"/><con name="e42" lb="1.16315080980568"/><con name="e43" lb="0"/><con name="e44" lb="1.84054963339749"/><con name="e45" lb="1.68639895357023"/><con name="e46" lb="2.47653840011748"/><con name="e47" lb="1.7404661748405"/><con name="e48" lb="1.82454929205105"/><con name="e49" lb="1.16315080980568"/><con name="e50" lb="1.09861228866811"/><con name="e51" lb="1.25276296849537"/><con name="e52" lb="1.19392246847243"/><con name="e53" lb="1.02961941718116"/><con name="e54" lb="1.22377543162212"/><con name="e55" lb=".741937344729377"/><con name="e56" lb=".916290731874155"/><con name="e57" lb="1.43508452528932"/><con name="e58" lb="1.28093384546206"/><con name="e59" lb="1.30833281965018"/><con name="e60" lb=".78845736036427"/><con name="e61" ub="6e3"/><con name="e62" lb="-7.69741490700595"/><con name="e63" lb="-7.69741490700595"/><con name="e64" lb="-7.69741490700595"/><con name="e65" lb="-7.69741490700595"/><con name="e66" lb="-7.69741490700595"/><con name="e67" lb="-7.69741490700595"/><con name="e68" lb="-7.69741490700595"/><con name="e69" lb="-7.69741490700595"/><con name="e70" lb="-7.69741490700595"/><con name="e71" lb="-7.69741490700595"/><con name="e72" lb="-7.69741490700595"/><con name="e73" lb="-7.69741490700595"/><con name="e74" lb="-7.69741490700595"/><con name="e75" lb="-7.69741490700595"/><con name="e76" lb="-7.69741490700595"/><con name="e77" lb="-7.69741490700595"/><con name="e78" lb="-7.69741490700595"/><con name="e79" lb="-7.69741490700595"/><con name="e80" lb="-7.69741490700595"/><con name="e81" lb="-7.69741490700595"/><con name="e82" lb="-7.69741490700595"/><con name="e83" lb="-7.69741490700595"/><con name="e84" lb="-7.69741490700595"/><con name="e85" lb="-7.69741490700595"/><con name="e86" lb="-7.69741490700595"/><con name="e87" lb="-7.69741490700595"/><con name="e88" lb="-7.69741490700595"/><con name="e89" lb="-7.69741490700595"/><con name="e90" lb="-7.69741490700595"/><con name="e91" lb="-7.69741490700595"/><con name="e92" lb="-7.69741490700595"/><con name="e93" lb="-7.69741490700595"/><con name="e94" lb="-7.69741490700595"/><con name="e95" lb="-7.69741490700595"/><con name="e96" lb="-7.69741490700595"/><con name="e97" lb="-7.69741490700595"/><con name="e98" lb="-7.69741490700595"/><con name="e99" lb="-7.69741490700595"/><con name="e100" lb="-7.69741490700595"/><con name="e101" lb="-7.69741490700595"/><con name="e102" lb="-7.69741490700595"/><con name="e103" lb="-7.69741490700595"/><con name="e104" lb="-7.69741490700595"/><con name="e105" lb="-7.69741490700595"/><con name="e106" lb="-7.69741490700595"/><con name="e107" lb="-7.69741490700595"/><con name="e108" lb="-7.69741490700595"/><con name="e109" lb="-7.69741490700595"/><con name="e110" lb="-7.69741490700595"/><con name="e111" lb="-7.69741490700595"/><con name="e112" lb="0" ub="0"/><con name="e113" lb="0" ub="0"/><con name="e114" lb="0" ub="0"/><con name="e115" lb="0" ub="0"/><con name="e116" lb="0" ub="0"/><con name="e117" lb="0" ub="0"/><con name="e118" lb="0" ub="0"/><con name="e119" lb="0" ub="0"/><con name="e120" lb="0" ub="0"/><con name="e121" lb="0" ub="0"/><con name="e122" lb="0" ub="0"/><con name="e123" lb="0" ub="0"/><con name="e124" lb="1" ub="1"/><con name="e125" lb="1" ub="1"/><con name="e126" lb="1" ub="1"/><con name="e127" lb="1" ub="1"/><con name="e128" lb="1" ub="1"/><con name="e129" lb="1" ub="1"/><con name="e130" lb="1" ub="1"/><con name="e131" lb="1" ub="1"/><con name="e132" lb="1" ub="1"/><con name="e133" lb="1" ub="1"/><con name="e134" lb="1" ub="1"/><con name="e135" lb="1" ub="1"/><con name="e136" lb="1" ub="1"/><con name="e137" ub="0"/><con name="e138" ub="0"/><con name="e139" ub="0"/><con name="e140" ub="0"/><con name="e141" ub="0"/><con name="e142" ub="0"/><con name="e143" ub="0"/><con name="e144" ub="0"/><con name="e145" ub="0"/><con name="e146" ub="0"/><con name="e147" ub="0"/><con name="e148" ub="0"/><con name="e149" ub="0"/><con name="e150" ub="0"/><con name="e151" ub="0"/><con name="e152" ub="0"/><con name="e153" ub="0"/><con name="e154" ub="0"/><con name="e155" ub="0"/><con name="e156" ub="0"/><con name="e157" ub="0"/><con name="e158" ub="0"/><con name="e159" ub="0"/><con name="e160" ub="0"/><con name="e161" ub="0"/><con name="e162" lb="0"/><con name="e163" lb="0"/><con name="e164" lb="0"/><con name="e165" lb="0"/><con name="e166" lb="0"/><con name="e167" lb="0"/><con name="e168" lb="0"/><con name="e169" lb="0"/><con name="e170" lb="0"/><con name="e171" lb="0"/><con name="e172" lb="0"/><con name="e173" lb="0"/><con name="e174" lb="0"/><con name="e175" lb="0"/><con name="e176" lb="0"/><con name="e177" lb="0"/><con name="e178" lb="0"/><con name="e179" lb="0"/><con name="e180" lb="0"/><con name="e181" lb="0"/><con name="e182" lb="0"/><con name="e183" lb="0"/><con name="e184" lb="0"/><con name="e185" lb="0"/><con name="e186" lb="0"/></constraints><linearConstraintCoefficients numberOfValues="582"><start><el mult="61" incr="3">0</el><el mult="51" incr="3">180</el><el mult="24" incr="4">334</el><el mult="51" incr="3">432</el></start><colIdx><el>0</el><el>6</el><el>36</el><el>1</el><el>7</el><el>37</el><el>2</el><el>8</el><el>38</el><el>3</el><el>9</el><el>39</el><el>4</el><el>10</el><el>40</el><el>5</el><el>11</el><el>41</el><el>0</el><el>12</el><el>36</el><el>1</el><el>13</el><el>37</el><el>2</el><el>14</el><el>38</el><el>3</el><el>15</el><el>39</el><el>4</el><el>16</el><el>40</el><el>5</el><el>17</el><el>41</el><el mult="3" incr="18">0</el><el mult="3" incr="18">1</el><el mult="3" incr="18">2</el><el mult="3" incr="18">3</el><el mult="3" incr="18">4</el><el mult="3" incr="18">5</el><el>0</el><el>24</el><el>36</el><el>1</el><el>25</el><el>37</el><el>2</el><el>26</el><el>38</el><el>3</el><el>27</el><el>39</el><el>4</el><el>28</el><el>40</el><el>5</el><el>29</el><el>41</el><el>0</el><el>30</el><el>36</el><el>1</el><el>31</el><el>37</el><el>2</el><el>32</el><el>38</el><el>3</el><el>33</el><el>39</el><el>4</el><el>34</el><el>40</el><el>5</el><el>35</el><el>41</el><el>6</el><el>42</el><el>53</el><el>7</el><el>43</el><el>53</el><el>8</el><el>44</el><el>53</el><el>9</el><el>45</el><el>53</el><el>10</el><el>46</el><el>53</el><el>11</el><el>47</el><el>53</el><el>12</el><el>42</el><el>54</el><el>13</el><el>43</el><el>54</el><el>14</el><el>44</el><el>54</el><el>15</el><el>45</el><el>54</el><el>16</el><el>46</el><el>54</el><el>17</el><el>47</el><el>54</el><el>18</el><el>42</el><el>55</el><el>19</el><el>43</el><el>55</el><el>20</el><el>44</el><el>55</el><el>21</el><el>45</el><el>55</el><el>22</el><el>46</el><el>55</el><el>23</el><el>47</el><el>55</el><el>24</el><el>42</el><el>56</el><el>25</el><el>43</el><el>56</el><el>26</el><el>44</el><el>56</el><el>27</el><el>45</el><el>56</el><el>28</el><el>46</el><el>56</el><el>29</el><el>47</el><el>56</el><el>30</el><el>42</el><el>57</el><el>31</el><el>43</el><el>57</el><el>32</el><el>44</el><el>57</el><el mult="3" incr="12">33</el><el>34</el><el>46</el><el>57</el><el>35</el><el>47</el><el>57</el><el>7</el><el>48</el><el>106</el><el>8</el><el>49</el><el>107</el><el>9</el><el>50</el><el>108</el><el>10</el><el>51</el><el>109</el><el>11</el><el>52</el><el>110</el><el>13</el><el>48</el><el>106</el><el>14</el><el>49</el><el>107</el><el>15</el><el>50</el><el>108</el><el>16</el><el>51</el><el>109</el><el>17</el><el>52</el><el>110</el><el>19</el><el>48</el><el>106</el><el>20</el><el>49</el><el>107</el><el>21</el><el>50</el><el>108</el><el>22</el><el>51</el><el>109</el><el>23</el><el>52</el><el>110</el><el>25</el><el>48</el><el>106</el><el>26</el><el>49</el><el>107</el><el>27</el><el>50</el><el>108</el><el>28</el><el>51</el><el>109</el><el>29</el><el>52</el><el>110</el><el>31</el><el>48</el><el>106</el><el>32</el><el>49</el><el>107</el><el>33</el><el>50</el><el>108</el><el>34</el><el>51</el><el>109</el><el>35</el><el>52</el><el>110</el><el>6</el><el>48</el><el>106</el><el>7</el><el>49</el><el>107</el><el>8</el><el>50</el><el>108</el><el>9</el><el>51</el><el>109</el><el>10</el><el>52</el><el>110</el><el>12</el><el>48</el><el>106</el><el>13</el><el>49</el><el>107</el><el>14</el><el>50</el><el>108</el><el>15</el><el>51</el><el>109</el><el>16</el><el>52</el><el>110</el><el>18</el><el>48</el><el>106</el><el>19</el><el>49</el><el>107</el><el>20</el><el>50</el><el>108</el><el>21</el><el>51</el><el>109</el><el>22</el><el>52</el><el>110</el><el>24</el><el>48</el><el>106</el><el>25</el><el>49</el><el>107</el><el>26</el><el>50</el><el>108</el><el>27</el><el>51</el><el>109</el><el>28</el><el>52</el><el>110</el><el>30</el><el>48</el><el>106</el><el>31</el><el>49</el><el>107</el><el>32</el><el>50</el><el>108</el><el>33</el><el>51</el><el>109</el><el>34</el><el>52</el><el>110</el><el>36</el><el mult="3" incr="6">64</el><el>37</el><el mult="3" incr="6">65</el><el>38</el><el mult="3" incr="6">66</el><el>39</el><el mult="3" incr="6">67</el><el>40</el><el mult="3" incr="6">68</el><el>41</el><el mult="3" incr="6">69</el><el>42</el><el mult="3" incr="6">88</el><el>43</el><el mult="3" incr="6">89</el><el>44</el><el mult="3" incr="6">90</el><el>45</el><el mult="3" incr="6">91</el><el>46</el><el mult="3" incr="6">92</el><el>47</el><el mult="3" incr="6">93</el><el mult="4" incr="6">58</el><el mult="4" incr="6">59</el><el mult="4" incr="6">60</el><el mult="4" incr="6">61</el><el mult="4" incr="6">62</el><el mult="4" incr="6">63</el><el mult="4" incr="6">82</el><el mult="4" incr="6">83</el><el mult="4" incr="6">84</el><el mult="4" incr="6">85</el><el mult="4" incr="6">86</el><el mult="4" incr="6">87</el><el mult="6" incr="1">106</el><el>6</el><el>7</el><el>106</el><el>7</el><el>8</el><el>107</el><el>8</el><el>9</el><el>108</el><el>9</el><el>10</el><el>109</el><el>10</el><el>11</el><el>110</el><el>12</el><el>13</el><el>106</el><el>13</el><el>14</el><el>107</el><el>14</el><el>15</el><el>108</el><el>15</el><el>16</el><el>109</el><el>16</el><el>17</el><el>110</el><el>18</el><el>19</el><el>106</el><el>19</el><el>20</el><el>107</el><el>20</el><el>21</el><el>108</el><el>21</el><el>22</el><el>109</el><el>22</el><el>23</el><el>110</el><el>24</el><el>25</el><el>106</el><el>25</el><el>26</el><el>107</el><el>26</el><el>27</el><el>108</el><el>27</el><el>28</el><el>109</el><el>28</el><el>29</el><el>110</el><el>30</el><el>31</el><el>106</el><el>31</el><el>32</el><el>107</el><el>32</el><el>33</el><el>108</el><el>33</el><el>34</el><el>109</el><el>34</el><el>35</el><el>110</el><el>6</el><el>7</el><el>106</el><el>7</el><el>8</el><el>107</el><el>8</el><el>9</el><el>108</el><el>9</el><el>10</el><el>109</el><el>10</el><el>11</el><el>110</el><el>12</el><el>13</el><el>106</el><el>13</el><el>14</el><el>107</el><el>14</el><el>15</el><el>108</el><el>15</el><el>16</el><el>109</el><el>16</el><el>17</el><el>110</el><el>18</el><el>19</el><el>106</el><el>19</el><el>20</el><el>107</el><el>20</el><el>21</el><el>108</el><el>21</el><el>22</el><el>109</el><el>22</el><el>23</el><el>110</el><el>24</el><el>25</el><el>106</el><el>25</el><el>26</el><el>107</el><el>26</el><el>27</el><el>108</el><el>27</el><el>28</el><el>109</el><el>28</el><el>29</el><el>110</el><el>30</el><el>31</el><el>106</el><el>31</el><el>32</el><el>107</el><el>32</el><el>33</el><el>108</el><el>33</el><el>34</el><el>109</el><el>34</el><el>35</el><el>110</el></colIdx><value><el>1</el><el>-1</el><el mult="2">1</el><el>-1</el><el mult="2">1</el><el>-1</el><el mult="2">1</el><el>-1</el><el mult="2">1</el><el>-1</el><el mult="2">1</el><el>-1</el><el mult="2">1</el><el>-1</el><el mult="2">1</el><el>-1</el><el mult="2">1</el><el>-1</el><el mult="2">1</el><el>-1</el><el mult="2">1</el><el>-1</el><el mult="2">1</el><el>-1</el><el mult="2">1</el><el>-1</el><el mult="2">1</el><el>-1</el><el mult="2">1</el><el>-1</el><el mult="2">1</el><el>-1</el><el mult="2">1</el><el>-1</el><el mult="2">1</el><el>-1</el><el mult="2">1</el><el>-1</el><el mult="2">1</el><el>-1</el><el mult="2">1</el><el>-1</el><el mult="2">1</el><el>-1</el><el mult="2">1</el><el>-1</el><el mult="2">1</el><el>-1</el><el mult="2">1</el><el>-1</el><el mult="2">1</el><el>-1</el><el mult="2">1</el><el>-1</el><el mult="2">1</el><el>-1</el><el mult="2">1</el><el>-1</el><el mult="2">1</el><el>-1</el><el mult="91">1</el><el>-1</el><el>1</el><el>-10</el><el>-1</el><el>1</el><el>-10</el><el>-1</el><el>1</el><el>-10</el><el>-1</el><el>1</el><el>-10</el><el>-1</el><el>1</el><el>-10</el><el>-1</el><el>1</el><el>-10</el><el>-1</el><el>1</el><el>-10</el><el>-1</el><el>1</el><el>-10</el><el>-1</el><el>1</el><el>-10</el><el>-1</el><el>1</el><el>-10</el><el>-1</el><el>1</el><el>-10</el><el>-1</el><el>1</el><el>-10</el><el>-1</el><el>1</el><el>-10</el><el>-1</el><el>1</el><el>-10</el><el>-1</el><el>1</el><el>-10</el><el>-1</el><el>1</el><el>-10</el><el>-1</el><el>1</el><el>-10</el><el>-1</el><el>1</el><el>-10</el><el>-1</el><el>1</el><el>-10</el><el>-1</el><el>1</el><el>-10</el><el>-1</el><el>1</el><el>-10</el><el>-1</el><el>1</el><el>-10</el><el>-1</el><el>1</el><el>-10</el><el>-1</el><el>1</el><el>-10</el><el>-1</el><el>1</el><el>-10</el><el>-1</el><el>1</el><el>-10</el><el>-1</el><el>1</el><el>-10</el><el>-1</el><el>1</el><el>-10</el><el>-1</el><el>1</el><el>-10</el><el>-1</el><el>1</el><el>-10</el><el>-1</el><el>1</el><el>-10</el><el>-1</el><el>1</el><el>-10</el><el>-1</el><el>1</el><el>-10</el><el>-1</el><el>1</el><el>-10</el><el>-1</el><el>1</el><el>-10</el><el>-1</el><el>1</el><el>-10</el><el>-1</el><el>1</el><el>-10</el><el>-1</el><el>1</el><el>-10</el><el>-1</el><el>1</el><el>-10</el><el>-1</el><el>1</el><el>-10</el><el>-1</el><el>1</el><el>-10</el><el>-1</el><el>1</el><el>-10</el><el>-1</el><el>1</el><el>-10</el><el>-1</el><el>1</el><el>-10</el><el>-1</el><el>1</el><el>-10</el><el>-1</el><el>1</el><el>-10</el><el>-1</el><el>1</el><el>-10</el><el>-1</el><el>1</el><el>-10</el><el>-1</el><el>1</el><el>-10</el><el>-1</el><el>1</el><el>-10</el><el>1</el><el>-.693147180559945</el><el>-1.09861228866811</el><el>-1.38629436111989</el><el>1</el><el>-.693147180559945</el><el>-1.09861228866811</el><el>-1.38629436111989</el><el>1</el><el>-.693147180559945</el><el>-1.09861228866811</el><el>-1.38629436111989</el><el>1</el><el>-.693147180559945</el><el>-1.09861228866811</el><el>-1.38629436111989</el><el>1</el><el>-.693147180559945</el><el>-1.09861228866811</el><el>-1.38629436111989</el><el>1</el><el>-.693147180559945</el><el>-1.09861228866811</el><el>-1.38629436111989</el><el>1</el><el>-.693147180559945</el><el>-1.09861228866811</el><el>-1.38629436111989</el><el>1</el><el>-.693147180559945</el><el>-1.09861228866811</el><el>-1.38629436111989</el><el>1</el><el>-.693147180559945</el><el>-1.09861228866811</el><el>-1.38629436111989</el><el>1</el><el>-.693147180559945</el><el>-1.09861228866811</el><el>-1.38629436111989</el><el>1</el><el>-.693147180559945</el><el>-1.09861228866811</el><el>-1.38629436111989</el><el>1</el><el>-.693147180559945</el><el>-1.09861228866811</el><el>-1.38629436111989</el><el mult="55">1</el><el>-1</el><el>-.693147180559945</el><el>1</el><el>-1</el><el>-.693147180559945</el><el>1</el><el>-1</el><el>-.693147180559945</el><el>1</el><el>-1</el><el>-.693147180559945</el><el>1</el><el>-1</el><el>-.693147180559945</el><el>1</el><el>-1</el><el>-.693147180559945</el><el>1</el><el>-1</el><el>-.693147180559945</el><el>1</el><el>-1</el><el>-.693147180559945</el><el>1</el><el>-1</el><el>-.693147180559945</el><el>1</el><el>-1</el><el>-.693147180559945</el><el>1</el><el>-1</el><el>-.693147180559945</el><el>1</el><el>-1</el><el>-.693147180559945</el><el>1</el><el>-1</el><el>-.693147180559945</el><el>1</el><el>-1</el><el>-.693147180559945</el><el>1</el><el>-1</el><el>-.693147180559945</el><el>1</el><el>-1</el><el>-.693147180559945</el><el>1</el><el>-1</el><el>-.693147180559945</el><el>1</el><el>-1</el><el>-.693147180559945</el><el>1</el><el>-1</el><el>-.693147180559945</el><el>1</el><el>-1</el><el>-.693147180559945</el><el>1</el><el>-1</el><el>-.693147180559945</el><el>1</el><el>-1</el><el>-.693147180559945</el><el>1</el><el>-1</el><el>-.693147180559945</el><el>1</el><el>-1</el><el>-.693147180559945</el><el>1</el><el>-1</el><el>-.693147180559945</el><el>1</el><el>-1</el><el>.693147180559945</el><el>1</el><el>-1</el><el>.693147180559945</el><el>1</el><el>-1</el><el>.693147180559945</el><el>1</el><el>-1</el><el>.693147180559945</el><el>1</el><el>-1</el><el>.693147180559945</el><el>1</el><el>-1</el><el>.693147180559945</el><el>1</el><el>-1</el><el>.693147180559945</el><el>1</el><el>-1</el><el>.693147180559945</el><el>1</el><el>-1</el><el>.693147180559945</el><el>1</el><el>-1</el><el>.693147180559945</el><el>1</el><el>-1</el><el>.693147180559945</el><el>1</el><el>-1</el><el>.693147180559945</el><el>1</el><el>-1</el><el>.693147180559945</el><el>1</el><el>-1</el><el>.693147180559945</el><el>1</el><el>-1</el><el>.693147180559945</el><el>1</el><el>-1</el><el>.693147180559945</el><el>1</el><el>-1</el><el>.693147180559945</el><el>1</el><el>-1</el><el>.693147180559945</el><el>1</el><el>-1</el><el>.693147180559945</el><el>1</el><el>-1</el><el>.693147180559945</el><el>1</el><el>-1</el><el>.693147180559945</el><el>1</el><el>-1</el><el>.693147180559945</el><el>1</el><el>-1</el><el>.693147180559945</el><el>1</el><el>-1</el><el>.693147180559945</el><el>1</el><el>-1</el><el>.693147180559945</el></value></linearConstraintCoefficients><nonlinearExpressions numberOfNonlinearExpressions="2"><nl idx="-1"><sum><product><sum><exp><sum><variable idx="0" coef=".6"/><variable idx="36"/><variable idx="42"/></sum></exp><exp><sum><variable idx="1" coef=".6"/><variable idx="37"/><variable idx="43"/></sum></exp><exp><sum><variable idx="2" coef=".6"/><variable idx="38"/><variable idx="44"/></sum></exp><exp><sum><variable idx="3" coef=".6"/><variable idx="39"/><variable idx="45"/></sum></exp><exp><sum><variable idx="4" coef=".6"/><variable idx="40"/><variable idx="46"/></sum></exp><exp><sum><variable idx="5" coef=".6"/><variable idx="41"/><variable idx="47"/></sum></exp></sum><number value="2.5e2"/></product><product><sum><exp><variable idx="48" coef=".5"/></exp><exp><variable idx="49" coef=".5"/></exp><exp><variable idx="50" coef=".5"/></exp><exp><variable idx="51" coef=".5"/></exp><exp><variable idx="52" coef=".5"/></exp></sum><number value="1.5e2"/></product></sum></nl><nl idx="60"><sum><product><exp><variable idx="53"/></exp><number value="2.5e5"/></product><product><exp><variable idx="54"/></exp><number value="1.5e5"/></product><product><exp><variable idx="55"/></exp><number value="1.8e5"/></product><product><exp><variable idx="56"/></exp><number value="1.6e5"/></product><product><exp><variable idx="57"/></exp><number value="1.2e5"/></product></sum></nl></nonlinearExpressions></instanceData></osil>